#######################



#######################
Set parameter TimeLimit to value 300
Set parameter SoftMemLimit to value 125
Set parameter LogFile to value 1003-MIPFocus0-Presolve2-TimeLimit300-k16x240-1.log
Set parameter Presolve to value 2
Set parameter Seed to value 1
Using license file /opt/gurobi/gurobi.lic

Gurobi Optimizer version 10.0.3 build v10.0.3rc0 (linux64)
Copyright (c) 2023, Gurobi Optimization, LLC

Read MPS format model from file /miplib2010/k16x240.mps.bz2
Reading time = 0.00 seconds
k16x240: 256 rows, 480 columns, 960 nonzeros

CPU model: Intel(R) Xeon(R) E-2388G CPU @ 3.20GHz, instruction set [SSE2|AVX|AVX2|AVX512]
Thread count: 8 physical cores, 16 logical processors, using up to 16 threads

Optimize a model with 256 rows, 480 columns and 960 nonzeros
Model fingerprint: 0x4e80885f
Variable types: 240 continuous, 240 integer (240 binary)
Coefficient statistics:
  Matrix range     [1e+00, 1e+03]
  Objective range  [1e+00, 1e+03]
  Bounds range     [1e+00, 1e+03]
  RHS range        [4e+00, 4e+02]
Found heuristic solution: objective 18783.000000
Presolve time: 0.00s
Presolved: 256 rows, 480 columns, 960 nonzeros
Variable types: 240 continuous, 240 integer (240 binary)
Root relaxation presolve removed 241 rows and 240 columns
Root relaxation presolved: 15 rows, 240 columns, 450 nonzeros


Root relaxation: objective 2.769838e+03, 16 iterations, 0.00 seconds (0.00 work units)

    Nodes    |    Current Node    |     Objective Bounds      |     Work
 Expl Unexpl |  Obj  Depth IntInf | Incumbent    BestBd   Gap | It/Node Time

     0     0 2769.83800    0   14 18783.0000 2769.83800  85.3%     -    0s
H    0     0                    11359.000000 2769.83800  75.6%     -    0s
H    0     0                    11302.000000 8084.69631  28.5%     -    0s
     0     0 8084.69631    0   26 11302.0000 8084.69631  28.5%     -    0s
H    0     0                    11077.000000 8084.69631  27.0%     -    0s
H    0     0                    11055.000000 8084.69631  26.9%     -    0s
H    0     0                    10923.000000 8084.69631  26.0%     -    0s
     0     0 8528.16906    0   24 10923.0000 8528.16906  21.9%     -    0s
     0     0 8539.15185    0   34 10923.0000 8539.15185  21.8%     -    0s
     0     0 8548.03675    0   29 10923.0000 8548.03675  21.7%     -    0s
     0     0 8707.68397    0   35 10923.0000 8707.68397  20.3%     -    0s
H    0     0                    10836.000000 8707.68397  19.6%     -    0s
H    0     0                    10807.000000 8756.82179  19.0%     -    0s
     0     0 8756.82179    0   29 10807.0000 8756.82179  19.0%     -    0s
     0     0 8759.07726    0   27 10807.0000 8759.07726  18.9%     -    0s
     0     0 8844.43862    0   32 10807.0000 8844.43862  18.2%     -    0s
     0     0 8860.55901    0   35 10807.0000 8860.55901  18.0%     -    0s
     0     0 8863.31088    0   36 10807.0000 8863.31088  18.0%     -    0s
     0     0 9006.85655    0   34 10807.0000 9006.85655  16.7%     -    0s
H    0     0                    10681.000000 9006.85655  15.7%     -    0s
     0     0 9018.74307    0   32 10681.0000 9018.74307  15.6%     -    0s
     0     0 9024.31593    0   29 10681.0000 9024.31593  15.5%     -    0s
     0     0 9075.88160    0   40 10681.0000 9075.88160  15.0%     -    0s
     0     0 9075.88160    0   40 10681.0000 9075.88160  15.0%     -    0s
     0     2 9077.67798    0   40 10681.0000 9077.67798  15.0%     -    0s
H  540   463                    10674.000000 9325.61948  12.6%  17.9    0s
 24194 10223 10334.7716   28   36 10674.0000 9930.91432  6.96%  30.4    5s
 58936 18610 10228.6242   29   18 10674.0000 10107.9405  5.30%  30.9   10s
 94799 22402 10567.8287   32   28 10674.0000 10236.7793  4.10%  31.7   15s
 128450 20372 10549.4943   36    4 10674.0000 10337.1030  3.16%  32.1   20s
 167612 10077 10651.7033   30   21 10674.0000 10477.8729  1.84%  31.7   25s

Cutting planes:
  Lift-and-project: 21
  Cover: 70
  Implied bound: 24
  MIR: 176
  Flow cover: 318
  Flow path: 53
  Inf proof: 2
  Zero half: 11
  Network: 61
  Relax-and-lift: 2

Explored 184848 nodes (5678962 simplex iterations) in 26.78 seconds (41.15 work units)
Thread count was 16 (of 16 available processors)

Solution count 10: 10674 10681 10807 ... 18783

Optimal solution found (tolerance 1.00e-04)
Best objective 1.067400000000e+04, best bound 1.067400000000e+04, gap 0.0000%
